p cnf 450 1528
c p weight 180 -1 0
c p weight -180 1 0
c p weight 182 6.12323399573676603586882014729198302312846062338790031898128063403419218957424163818359375E-17 0
c p weight -182 1 0
c p weight 183 1 0
c p weight -183 1 0
c p weight 184 -1 0
c p weight -184 1 0
c p weight 186 -1 0
c p weight -186 1 0
c p weight 189 -1 0
c p weight -189 1 0
c p weight 192 -1 0
c p weight -192 1 0
c p weight 195 -1 0
c p weight -195 1 0
c p weight 198 -1 0
c p weight -198 1 0
c p weight 201 -1 0
c p weight -201 1 0
c p weight 204 -1 0
c p weight -204 1 0
c p weight 207 -1 0
c p weight -207 1 0
c p weight 210 -1 0
c p weight -210 1 0
c p weight 213 -1 0
c p weight -213 1 0
c p weight 216 -1 0
c p weight -216 1 0
c p weight 219 -1 0
c p weight -219 1 0
c p weight 222 -1 0
c p weight -222 1 0
c p weight 225 -1 0
c p weight -225 1 0
c p weight 228 -1 0
c p weight -228 1 0
c p weight 231 -1 0
c p weight -231 1 0
c p weight 234 -1 0
c p weight -234 1 0
c p weight 237 -1 0
c p weight -237 1 0
c p weight 240 -1 0
c p weight -240 1 0
c p weight 243 -1 0
c p weight -243 1 0
c p weight 246 -1 0
c p weight -246 1 0
c p weight 249 -1 0
c p weight -249 1 0
c p weight 252 -1 0
c p weight -252 1 0
c p weight 255 -1 0
c p weight -255 1 0
c p weight 258 -1 0
c p weight -258 1 0
c p weight 261 -1 0
c p weight -261 1 0
c p weight 264 -1 0
c p weight -264 1 0
c p weight 267 -1 0
c p weight -267 1 0
c p weight 270 -1 0
c p weight -270 1 0
c p weight 273 -1 0
c p weight -273 1 0
c p weight 276 -1 0
c p weight -276 1 0
c p weight 279 -1 0
c p weight -279 1 0
c p weight 282 -1 0
c p weight -282 1 0
c p weight 285 -1 0
c p weight -285 1 0
c p weight 288 -1 0
c p weight -288 1 0
c p weight 291 -1 0
c p weight -291 1 0
c p weight 294 -1 0
c p weight -294 1 0
c p weight 297 -1 0
c p weight -297 1 0
c p weight 300 -1 0
c p weight -300 1 0
c p weight 303 -1 0
c p weight -303 1 0
c p weight 306 -1 0
c p weight -306 1 0
c p weight 309 -1 0
c p weight -309 1 0
c p weight 312 -1 0
c p weight -312 1 0
c p weight 315 -1 0
c p weight -315 1 0
c p weight 318 -1 0
c p weight -318 1 0
c p weight 321 -1 0
c p weight -321 1 0
c p weight 324 -1 0
c p weight -324 1 0
c p weight 327 -1 0
c p weight -327 1 0
c p weight 330 -1 0
c p weight -330 1 0
c p weight 333 -1 0
c p weight -333 1 0
c p weight 336 -1 0
c p weight -336 1 0
c p weight 339 -1 0
c p weight -339 1 0
c p weight 342 -1 0
c p weight -342 1 0
c p weight 345 -1 0
c p weight -345 1 0
c p weight 348 -1 0
c p weight -348 1 0
c p weight 351 -1 0
c p weight -351 1 0
c p weight 354 -1 0
c p weight -354 1 0
c p weight 357 -1 0
c p weight -357 1 0
c p weight 360 -1 0
c p weight -360 1 0
c p weight 363 -1 0
c p weight -363 1 0
c p weight 366 -1 0
c p weight -366 1 0
c p weight 369 -1 0
c p weight -369 1 0
c p weight 372 -1 0
c p weight -372 1 0
c p weight 375 -1 0
c p weight -375 1 0
c p weight 378 -1 0
c p weight -378 1 0
c p weight 381 -1 0
c p weight -381 1 0
c p weight 384 -1 0
c p weight -384 1 0
c p weight 387 -1 0
c p weight -387 1 0
c p weight 390 -1 0
c p weight -390 1 0
c p weight 393 -1 0
c p weight -393 1 0
c p weight 396 -1 0
c p weight -396 1 0
c p weight 399 -1 0
c p weight -399 1 0
c p weight 402 -1 0
c p weight -402 1 0
c p weight 405 -1 0
c p weight -405 1 0
c p weight 408 -1 0
c p weight -408 1 0
c p weight 411 -1 0
c p weight -411 1 0
c p weight 414 -1 0
c p weight -414 1 0
c p weight 417 -1 0
c p weight -417 1 0
c p weight 420 -1 0
c p weight -420 1 0
c p weight 423 -1 0
c p weight -423 1 0
c p weight 426 -1 0
c p weight -426 1 0
c p weight 429 -1 0
c p weight -429 1 0
c p weight 432 -1 0
c p weight -432 1 0
c p weight 435 -1 0
c p weight -435 1 0
c p weight 438 -1 0
c p weight -438 1 0
c p weight 441 -1 0
c p weight -441 1 0
c p weight 444 -1 0
c p weight -444 1 0
c p weight 447 -1 0
c p weight -447 1 0
c p weight 450 -1 0
c p weight -450 1 0
-177 0
-175 0
-173 0
-171 0
-169 0
-167 0
-165 0
-163 0
-161 0
-159 0
-157 0
-155 0
-153 0
-151 0
-149 0
-147 0
-145 0
-143 0
-141 0
-139 0
-137 0
-135 0
-133 0
-131 0
-129 0
-127 0
-125 0
-123 0
-121 0
-119 0
-117 0
-115 0
-113 0
-111 0
-109 0
-107 0
-105 0
-103 0
-101 0
-99 0
-97 0
-95 0
-93 0
-91 0
-89 0
-87 0
-85 0
-83 0
-81 0
-79 0
-77 0
-75 0
-73 0
-71 0
-69 0
-67 0
-65 0
-63 0
-61 0
-59 0
-57 0
-55 0
-53 0
-51 0
-49 0
-47 0
-45 0
-43 0
-41 0
-39 0
-37 0
-35 0
-33 0
-31 0
-29 0
-27 0
-25 0
-23 0
-21 0
-19 0
-17 0
-15 0
-13 0
-11 0
-9 0
-7 0
-5 0
-3 0
-1 0
179 177 -178 0
179 -177 178 0
-179 177 178 0
-179 -177 -178 0
-180 177 0
-180 178 0
180 -177 -178 0
181 -177 179 0
-181 177 179 0
-182 179 0
181 -182 -177 0
-181 -182 177 0
181 182 177 -179 0
-181 182 -177 -179 0
-183 179 0
181 -183 177 0
-181 -183 -177 0
181 183 -177 -179 0
-181 183 177 -179 0
-184 181 0
-184 179 0
-184 -177 0
184 -181 177 -179 0
185 181 -179 0
185 -181 179 0
-185 181 179 0
-185 -181 -179 0
-186 181 0
-186 179 0
186 -181 -179 0
187 181 -175 0
187 -181 175 0
-187 181 175 0
-187 -181 -175 0
188 185 -176 0
188 -185 176 0
-188 185 176 0
-188 -185 -176 0
-189 181 0
-189 176 0
-189 175 -185 0
-189 -175 185 0
189 -181 175 185 -176 0
189 -181 -175 -185 -176 0
190 187 -173 0
190 -187 173 0
-190 187 173 0
-190 -187 -173 0
191 176 -174 0
191 -176 174 0
-191 176 174 0
-191 -176 -174 0
-192 187 0
-192 174 0
-192 173 -176 0
-192 -173 176 0
192 -187 173 176 -174 0
192 -187 -173 -176 -174 0
193 190 -171 0
193 -190 171 0
-193 190 171 0
-193 -190 -171 0
194 174 -172 0
194 -174 172 0
-194 174 172 0
-194 -174 -172 0
-195 190 0
-195 172 0
-195 171 -174 0
-195 -171 174 0
195 -190 171 174 -172 0
195 -190 -171 -174 -172 0
196 193 -169 0
196 -193 169 0
-196 193 169 0
-196 -193 -169 0
197 172 -170 0
197 -172 170 0
-197 172 170 0
-197 -172 -170 0
-198 193 0
-198 170 0
-198 169 -172 0
-198 -169 172 0
198 -193 169 172 -170 0
198 -193 -169 -172 -170 0
199 196 -167 0
199 -196 167 0
-199 196 167 0
-199 -196 -167 0
200 170 -168 0
200 -170 168 0
-200 170 168 0
-200 -170 -168 0
-201 196 0
-201 168 0
-201 167 -170 0
-201 -167 170 0
201 -196 167 170 -168 0
201 -196 -167 -170 -168 0
202 199 -165 0
202 -199 165 0
-202 199 165 0
-202 -199 -165 0
203 168 -166 0
203 -168 166 0
-203 168 166 0
-203 -168 -166 0
-204 199 0
-204 166 0
-204 165 -168 0
-204 -165 168 0
204 -199 165 168 -166 0
204 -199 -165 -168 -166 0
205 202 -163 0
205 -202 163 0
-205 202 163 0
-205 -202 -163 0
206 166 -164 0
206 -166 164 0
-206 166 164 0
-206 -166 -164 0
-207 202 0
-207 164 0
-207 163 -166 0
-207 -163 166 0
207 -202 163 166 -164 0
207 -202 -163 -166 -164 0
208 205 -161 0
208 -205 161 0
-208 205 161 0
-208 -205 -161 0
209 164 -162 0
209 -164 162 0
-209 164 162 0
-209 -164 -162 0
-210 205 0
-210 162 0
-210 161 -164 0
-210 -161 164 0
210 -205 161 164 -162 0
210 -205 -161 -164 -162 0
211 208 -159 0
211 -208 159 0
-211 208 159 0
-211 -208 -159 0
212 162 -160 0
212 -162 160 0
-212 162 160 0
-212 -162 -160 0
-213 208 0
-213 160 0
-213 159 -162 0
-213 -159 162 0
213 -208 159 162 -160 0
213 -208 -159 -162 -160 0
214 211 -157 0
214 -211 157 0
-214 211 157 0
-214 -211 -157 0
215 160 -158 0
215 -160 158 0
-215 160 158 0
-215 -160 -158 0
-216 211 0
-216 158 0
-216 157 -160 0
-216 -157 160 0
216 -211 157 160 -158 0
216 -211 -157 -160 -158 0
217 214 -155 0
217 -214 155 0
-217 214 155 0
-217 -214 -155 0
218 158 -156 0
218 -158 156 0
-218 158 156 0
-218 -158 -156 0
-219 214 0
-219 156 0
-219 155 -158 0
-219 -155 158 0
219 -214 155 158 -156 0
219 -214 -155 -158 -156 0
220 217 -153 0
220 -217 153 0
-220 217 153 0
-220 -217 -153 0
221 156 -154 0
221 -156 154 0
-221 156 154 0
-221 -156 -154 0
-222 217 0
-222 154 0
-222 153 -156 0
-222 -153 156 0
222 -217 153 156 -154 0
222 -217 -153 -156 -154 0
223 220 -151 0
223 -220 151 0
-223 220 151 0
-223 -220 -151 0
224 154 -152 0
224 -154 152 0
-224 154 152 0
-224 -154 -152 0
-225 220 0
-225 152 0
-225 151 -154 0
-225 -151 154 0
225 -220 151 154 -152 0
225 -220 -151 -154 -152 0
226 223 -149 0
226 -223 149 0
-226 223 149 0
-226 -223 -149 0
227 152 -150 0
227 -152 150 0
-227 152 150 0
-227 -152 -150 0
-228 223 0
-228 150 0
-228 149 -152 0
-228 -149 152 0
228 -223 149 152 -150 0
228 -223 -149 -152 -150 0
229 226 -147 0
229 -226 147 0
-229 226 147 0
-229 -226 -147 0
230 150 -148 0
230 -150 148 0
-230 150 148 0
-230 -150 -148 0
-231 226 0
-231 148 0
-231 147 -150 0
-231 -147 150 0
231 -226 147 150 -148 0
231 -226 -147 -150 -148 0
232 229 -145 0
232 -229 145 0
-232 229 145 0
-232 -229 -145 0
233 148 -146 0
233 -148 146 0
-233 148 146 0
-233 -148 -146 0
-234 229 0
-234 146 0
-234 145 -148 0
-234 -145 148 0
234 -229 145 148 -146 0
234 -229 -145 -148 -146 0
235 232 -143 0
235 -232 143 0
-235 232 143 0
-235 -232 -143 0
236 146 -144 0
236 -146 144 0
-236 146 144 0
-236 -146 -144 0
-237 232 0
-237 144 0
-237 143 -146 0
-237 -143 146 0
237 -232 143 146 -144 0
237 -232 -143 -146 -144 0
238 235 -141 0
238 -235 141 0
-238 235 141 0
-238 -235 -141 0
239 144 -142 0
239 -144 142 0
-239 144 142 0
-239 -144 -142 0
-240 235 0
-240 142 0
-240 141 -144 0
-240 -141 144 0
240 -235 141 144 -142 0
240 -235 -141 -144 -142 0
241 238 -139 0
241 -238 139 0
-241 238 139 0
-241 -238 -139 0
242 142 -140 0
242 -142 140 0
-242 142 140 0
-242 -142 -140 0
-243 238 0
-243 140 0
-243 139 -142 0
-243 -139 142 0
243 -238 139 142 -140 0
243 -238 -139 -142 -140 0
244 241 -137 0
244 -241 137 0
-244 241 137 0
-244 -241 -137 0
245 140 -138 0
245 -140 138 0
-245 140 138 0
-245 -140 -138 0
-246 241 0
-246 138 0
-246 137 -140 0
-246 -137 140 0
246 -241 137 140 -138 0
246 -241 -137 -140 -138 0
247 244 -135 0
247 -244 135 0
-247 244 135 0
-247 -244 -135 0
248 138 -136 0
248 -138 136 0
-248 138 136 0
-248 -138 -136 0
-249 244 0
-249 136 0
-249 135 -138 0
-249 -135 138 0
249 -244 135 138 -136 0
249 -244 -135 -138 -136 0
250 247 -133 0
250 -247 133 0
-250 247 133 0
-250 -247 -133 0
251 136 -134 0
251 -136 134 0
-251 136 134 0
-251 -136 -134 0
-252 247 0
-252 134 0
-252 133 -136 0
-252 -133 136 0
252 -247 133 136 -134 0
252 -247 -133 -136 -134 0
253 250 -131 0
253 -250 131 0
-253 250 131 0
-253 -250 -131 0
254 134 -132 0
254 -134 132 0
-254 134 132 0
-254 -134 -132 0
-255 250 0
-255 132 0
-255 131 -134 0
-255 -131 134 0
255 -250 131 134 -132 0
255 -250 -131 -134 -132 0
256 253 -129 0
256 -253 129 0
-256 253 129 0
-256 -253 -129 0
257 132 -130 0
257 -132 130 0
-257 132 130 0
-257 -132 -130 0
-258 253 0
-258 130 0
-258 129 -132 0
-258 -129 132 0
258 -253 129 132 -130 0
258 -253 -129 -132 -130 0
259 256 -127 0
259 -256 127 0
-259 256 127 0
-259 -256 -127 0
260 130 -128 0
260 -130 128 0
-260 130 128 0
-260 -130 -128 0
-261 256 0
-261 128 0
-261 127 -130 0
-261 -127 130 0
261 -256 127 130 -128 0
261 -256 -127 -130 -128 0
262 259 -125 0
262 -259 125 0
-262 259 125 0
-262 -259 -125 0
263 128 -126 0
263 -128 126 0
-263 128 126 0
-263 -128 -126 0
-264 259 0
-264 126 0
-264 125 -128 0
-264 -125 128 0
264 -259 125 128 -126 0
264 -259 -125 -128 -126 0
265 262 -123 0
265 -262 123 0
-265 262 123 0
-265 -262 -123 0
266 126 -124 0
266 -126 124 0
-266 126 124 0
-266 -126 -124 0
-267 262 0
-267 124 0
-267 123 -126 0
-267 -123 126 0
267 -262 123 126 -124 0
267 -262 -123 -126 -124 0
268 265 -121 0
268 -265 121 0
-268 265 121 0
-268 -265 -121 0
269 124 -122 0
269 -124 122 0
-269 124 122 0
-269 -124 -122 0
-270 265 0
-270 122 0
-270 121 -124 0
-270 -121 124 0
270 -265 121 124 -122 0
270 -265 -121 -124 -122 0
271 268 -119 0
271 -268 119 0
-271 268 119 0
-271 -268 -119 0
272 122 -120 0
272 -122 120 0
-272 122 120 0
-272 -122 -120 0
-273 268 0
-273 120 0
-273 119 -122 0
-273 -119 122 0
273 -268 119 122 -120 0
273 -268 -119 -122 -120 0
274 271 -117 0
274 -271 117 0
-274 271 117 0
-274 -271 -117 0
275 120 -118 0
275 -120 118 0
-275 120 118 0
-275 -120 -118 0
-276 271 0
-276 118 0
-276 117 -120 0
-276 -117 120 0
276 -271 117 120 -118 0
276 -271 -117 -120 -118 0
277 274 -115 0
277 -274 115 0
-277 274 115 0
-277 -274 -115 0
278 118 -116 0
278 -118 116 0
-278 118 116 0
-278 -118 -116 0
-279 274 0
-279 116 0
-279 115 -118 0
-279 -115 118 0
279 -274 115 118 -116 0
279 -274 -115 -118 -116 0
280 277 -113 0
280 -277 113 0
-280 277 113 0
-280 -277 -113 0
281 116 -114 0
281 -116 114 0
-281 116 114 0
-281 -116 -114 0
-282 277 0
-282 114 0
-282 113 -116 0
-282 -113 116 0
282 -277 113 116 -114 0
282 -277 -113 -116 -114 0
283 280 -111 0
283 -280 111 0
-283 280 111 0
-283 -280 -111 0
284 114 -112 0
284 -114 112 0
-284 114 112 0
-284 -114 -112 0
-285 280 0
-285 112 0
-285 111 -114 0
-285 -111 114 0
285 -280 111 114 -112 0
285 -280 -111 -114 -112 0
286 283 -109 0
286 -283 109 0
-286 283 109 0
-286 -283 -109 0
287 112 -110 0
287 -112 110 0
-287 112 110 0
-287 -112 -110 0
-288 283 0
-288 110 0
-288 109 -112 0
-288 -109 112 0
288 -283 109 112 -110 0
288 -283 -109 -112 -110 0
289 286 -107 0
289 -286 107 0
-289 286 107 0
-289 -286 -107 0
290 110 -108 0
290 -110 108 0
-290 110 108 0
-290 -110 -108 0
-291 286 0
-291 108 0
-291 107 -110 0
-291 -107 110 0
291 -286 107 110 -108 0
291 -286 -107 -110 -108 0
292 289 -105 0
292 -289 105 0
-292 289 105 0
-292 -289 -105 0
293 108 -106 0
293 -108 106 0
-293 108 106 0
-293 -108 -106 0
-294 289 0
-294 106 0
-294 105 -108 0
-294 -105 108 0
294 -289 105 108 -106 0
294 -289 -105 -108 -106 0
295 292 -103 0
295 -292 103 0
-295 292 103 0
-295 -292 -103 0
296 106 -104 0
296 -106 104 0
-296 106 104 0
-296 -106 -104 0
-297 292 0
-297 104 0
-297 103 -106 0
-297 -103 106 0
297 -292 103 106 -104 0
297 -292 -103 -106 -104 0
298 295 -101 0
298 -295 101 0
-298 295 101 0
-298 -295 -101 0
299 104 -102 0
299 -104 102 0
-299 104 102 0
-299 -104 -102 0
-300 295 0
-300 102 0
-300 101 -104 0
-300 -101 104 0
300 -295 101 104 -102 0
300 -295 -101 -104 -102 0
301 298 -99 0
301 -298 99 0
-301 298 99 0
-301 -298 -99 0
302 102 -100 0
302 -102 100 0
-302 102 100 0
-302 -102 -100 0
-303 298 0
-303 100 0
-303 99 -102 0
-303 -99 102 0
303 -298 99 102 -100 0
303 -298 -99 -102 -100 0
304 301 -97 0
304 -301 97 0
-304 301 97 0
-304 -301 -97 0
305 100 -98 0
305 -100 98 0
-305 100 98 0
-305 -100 -98 0
-306 301 0
-306 98 0
-306 97 -100 0
-306 -97 100 0
306 -301 97 100 -98 0
306 -301 -97 -100 -98 0
307 304 -95 0
307 -304 95 0
-307 304 95 0
-307 -304 -95 0
308 98 -96 0
308 -98 96 0
-308 98 96 0
-308 -98 -96 0
-309 304 0
-309 96 0
-309 95 -98 0
-309 -95 98 0
309 -304 95 98 -96 0
309 -304 -95 -98 -96 0
310 307 -93 0
310 -307 93 0
-310 307 93 0
-310 -307 -93 0
311 96 -94 0
311 -96 94 0
-311 96 94 0
-311 -96 -94 0
-312 307 0
-312 94 0
-312 93 -96 0
-312 -93 96 0
312 -307 93 96 -94 0
312 -307 -93 -96 -94 0
313 310 -91 0
313 -310 91 0
-313 310 91 0
-313 -310 -91 0
314 94 -92 0
314 -94 92 0
-314 94 92 0
-314 -94 -92 0
-315 310 0
-315 92 0
-315 91 -94 0
-315 -91 94 0
315 -310 91 94 -92 0
315 -310 -91 -94 -92 0
316 313 -89 0
316 -313 89 0
-316 313 89 0
-316 -313 -89 0
317 92 -90 0
317 -92 90 0
-317 92 90 0
-317 -92 -90 0
-318 313 0
-318 90 0
-318 89 -92 0
-318 -89 92 0
318 -313 89 92 -90 0
318 -313 -89 -92 -90 0
319 316 -87 0
319 -316 87 0
-319 316 87 0
-319 -316 -87 0
320 90 -88 0
320 -90 88 0
-320 90 88 0
-320 -90 -88 0
-321 316 0
-321 88 0
-321 87 -90 0
-321 -87 90 0
321 -316 87 90 -88 0
321 -316 -87 -90 -88 0
322 319 -85 0
322 -319 85 0
-322 319 85 0
-322 -319 -85 0
323 88 -86 0
323 -88 86 0
-323 88 86 0
-323 -88 -86 0
-324 319 0
-324 86 0
-324 85 -88 0
-324 -85 88 0
324 -319 85 88 -86 0
324 -319 -85 -88 -86 0
325 322 -83 0
325 -322 83 0
-325 322 83 0
-325 -322 -83 0
326 86 -84 0
326 -86 84 0
-326 86 84 0
-326 -86 -84 0
-327 322 0
-327 84 0
-327 83 -86 0
-327 -83 86 0
327 -322 83 86 -84 0
327 -322 -83 -86 -84 0
328 325 -81 0
328 -325 81 0
-328 325 81 0
-328 -325 -81 0
329 84 -82 0
329 -84 82 0
-329 84 82 0
-329 -84 -82 0
-330 325 0
-330 82 0
-330 81 -84 0
-330 -81 84 0
330 -325 81 84 -82 0
330 -325 -81 -84 -82 0
331 328 -79 0
331 -328 79 0
-331 328 79 0
-331 -328 -79 0
332 82 -80 0
332 -82 80 0
-332 82 80 0
-332 -82 -80 0
-333 328 0
-333 80 0
-333 79 -82 0
-333 -79 82 0
333 -328 79 82 -80 0
333 -328 -79 -82 -80 0
334 331 -77 0
334 -331 77 0
-334 331 77 0
-334 -331 -77 0
335 80 -78 0
335 -80 78 0
-335 80 78 0
-335 -80 -78 0
-336 331 0
-336 78 0
-336 77 -80 0
-336 -77 80 0
336 -331 77 80 -78 0
336 -331 -77 -80 -78 0
337 334 -75 0
337 -334 75 0
-337 334 75 0
-337 -334 -75 0
338 78 -76 0
338 -78 76 0
-338 78 76 0
-338 -78 -76 0
-339 334 0
-339 76 0
-339 75 -78 0
-339 -75 78 0
339 -334 75 78 -76 0
339 -334 -75 -78 -76 0
340 337 -73 0
340 -337 73 0
-340 337 73 0
-340 -337 -73 0
341 76 -74 0
341 -76 74 0
-341 76 74 0
-341 -76 -74 0
-342 337 0
-342 74 0
-342 73 -76 0
-342 -73 76 0
342 -337 73 76 -74 0
342 -337 -73 -76 -74 0
343 340 -71 0
343 -340 71 0
-343 340 71 0
-343 -340 -71 0
344 74 -72 0
344 -74 72 0
-344 74 72 0
-344 -74 -72 0
-345 340 0
-345 72 0
-345 71 -74 0
-345 -71 74 0
345 -340 71 74 -72 0
345 -340 -71 -74 -72 0
346 343 -69 0
346 -343 69 0
-346 343 69 0
-346 -343 -69 0
347 72 -70 0
347 -72 70 0
-347 72 70 0
-347 -72 -70 0
-348 343 0
-348 70 0
-348 69 -72 0
-348 -69 72 0
348 -343 69 72 -70 0
348 -343 -69 -72 -70 0
349 346 -67 0
349 -346 67 0
-349 346 67 0
-349 -346 -67 0
350 70 -68 0
350 -70 68 0
-350 70 68 0
-350 -70 -68 0
-351 346 0
-351 68 0
-351 67 -70 0
-351 -67 70 0
351 -346 67 70 -68 0
351 -346 -67 -70 -68 0
352 349 -65 0
352 -349 65 0
-352 349 65 0
-352 -349 -65 0
353 68 -66 0
353 -68 66 0
-353 68 66 0
-353 -68 -66 0
-354 349 0
-354 66 0
-354 65 -68 0
-354 -65 68 0
354 -349 65 68 -66 0
354 -349 -65 -68 -66 0
355 352 -63 0
355 -352 63 0
-355 352 63 0
-355 -352 -63 0
356 66 -64 0
356 -66 64 0
-356 66 64 0
-356 -66 -64 0
-357 352 0
-357 64 0
-357 63 -66 0
-357 -63 66 0
357 -352 63 66 -64 0
357 -352 -63 -66 -64 0
358 355 -61 0
358 -355 61 0
-358 355 61 0
-358 -355 -61 0
359 64 -62 0
359 -64 62 0
-359 64 62 0
-359 -64 -62 0
-360 355 0
-360 62 0
-360 61 -64 0
-360 -61 64 0
360 -355 61 64 -62 0
360 -355 -61 -64 -62 0
361 358 -59 0
361 -358 59 0
-361 358 59 0
-361 -358 -59 0
362 62 -60 0
362 -62 60 0
-362 62 60 0
-362 -62 -60 0
-363 358 0
-363 60 0
-363 59 -62 0
-363 -59 62 0
363 -358 59 62 -60 0
363 -358 -59 -62 -60 0
364 361 -57 0
364 -361 57 0
-364 361 57 0
-364 -361 -57 0
365 60 -58 0
365 -60 58 0
-365 60 58 0
-365 -60 -58 0
-366 361 0
-366 58 0
-366 57 -60 0
-366 -57 60 0
366 -361 57 60 -58 0
366 -361 -57 -60 -58 0
367 364 -55 0
367 -364 55 0
-367 364 55 0
-367 -364 -55 0
368 58 -56 0
368 -58 56 0
-368 58 56 0
-368 -58 -56 0
-369 364 0
-369 56 0
-369 55 -58 0
-369 -55 58 0
369 -364 55 58 -56 0
369 -364 -55 -58 -56 0
370 367 -53 0
370 -367 53 0
-370 367 53 0
-370 -367 -53 0
371 56 -54 0
371 -56 54 0
-371 56 54 0
-371 -56 -54 0
-372 367 0
-372 54 0
-372 53 -56 0
-372 -53 56 0
372 -367 53 56 -54 0
372 -367 -53 -56 -54 0
373 370 -51 0
373 -370 51 0
-373 370 51 0
-373 -370 -51 0
374 54 -52 0
374 -54 52 0
-374 54 52 0
-374 -54 -52 0
-375 370 0
-375 52 0
-375 51 -54 0
-375 -51 54 0
375 -370 51 54 -52 0
375 -370 -51 -54 -52 0
376 373 -49 0
376 -373 49 0
-376 373 49 0
-376 -373 -49 0
377 52 -50 0
377 -52 50 0
-377 52 50 0
-377 -52 -50 0
-378 373 0
-378 50 0
-378 49 -52 0
-378 -49 52 0
378 -373 49 52 -50 0
378 -373 -49 -52 -50 0
379 376 -47 0
379 -376 47 0
-379 376 47 0
-379 -376 -47 0
380 50 -48 0
380 -50 48 0
-380 50 48 0
-380 -50 -48 0
-381 376 0
-381 48 0
-381 47 -50 0
-381 -47 50 0
381 -376 47 50 -48 0
381 -376 -47 -50 -48 0
382 379 -45 0
382 -379 45 0
-382 379 45 0
-382 -379 -45 0
383 48 -46 0
383 -48 46 0
-383 48 46 0
-383 -48 -46 0
-384 379 0
-384 46 0
-384 45 -48 0
-384 -45 48 0
384 -379 45 48 -46 0
384 -379 -45 -48 -46 0
385 382 -43 0
385 -382 43 0
-385 382 43 0
-385 -382 -43 0
386 46 -44 0
386 -46 44 0
-386 46 44 0
-386 -46 -44 0
-387 382 0
-387 44 0
-387 43 -46 0
-387 -43 46 0
387 -382 43 46 -44 0
387 -382 -43 -46 -44 0
388 385 -41 0
388 -385 41 0
-388 385 41 0
-388 -385 -41 0
389 44 -42 0
389 -44 42 0
-389 44 42 0
-389 -44 -42 0
-390 385 0
-390 42 0
-390 41 -44 0
-390 -41 44 0
390 -385 41 44 -42 0
390 -385 -41 -44 -42 0
391 388 -39 0
391 -388 39 0
-391 388 39 0
-391 -388 -39 0
392 42 -40 0
392 -42 40 0
-392 42 40 0
-392 -42 -40 0
-393 388 0
-393 40 0
-393 39 -42 0
-393 -39 42 0
393 -388 39 42 -40 0
393 -388 -39 -42 -40 0
394 391 -37 0
394 -391 37 0
-394 391 37 0
-394 -391 -37 0
395 40 -38 0
395 -40 38 0
-395 40 38 0
-395 -40 -38 0
-396 391 0
-396 38 0
-396 37 -40 0
-396 -37 40 0
396 -391 37 40 -38 0
396 -391 -37 -40 -38 0
397 394 -35 0
397 -394 35 0
-397 394 35 0
-397 -394 -35 0
398 38 -36 0
398 -38 36 0
-398 38 36 0
-398 -38 -36 0
-399 394 0
-399 36 0
-399 35 -38 0
-399 -35 38 0
399 -394 35 38 -36 0
399 -394 -35 -38 -36 0
400 397 -33 0
400 -397 33 0
-400 397 33 0
-400 -397 -33 0
401 36 -34 0
401 -36 34 0
-401 36 34 0
-401 -36 -34 0
-402 397 0
-402 34 0
-402 33 -36 0
-402 -33 36 0
402 -397 33 36 -34 0
402 -397 -33 -36 -34 0
403 400 -31 0
403 -400 31 0
-403 400 31 0
-403 -400 -31 0
404 34 -32 0
404 -34 32 0
-404 34 32 0
-404 -34 -32 0
-405 400 0
-405 32 0
-405 31 -34 0
-405 -31 34 0
405 -400 31 34 -32 0
405 -400 -31 -34 -32 0
406 403 -29 0
406 -403 29 0
-406 403 29 0
-406 -403 -29 0
407 32 -30 0
407 -32 30 0
-407 32 30 0
-407 -32 -30 0
-408 403 0
-408 30 0
-408 29 -32 0
-408 -29 32 0
408 -403 29 32 -30 0
408 -403 -29 -32 -30 0
409 406 -27 0
409 -406 27 0
-409 406 27 0
-409 -406 -27 0
410 30 -28 0
410 -30 28 0
-410 30 28 0
-410 -30 -28 0
-411 406 0
-411 28 0
-411 27 -30 0
-411 -27 30 0
411 -406 27 30 -28 0
411 -406 -27 -30 -28 0
412 409 -25 0
412 -409 25 0
-412 409 25 0
-412 -409 -25 0
413 28 -26 0
413 -28 26 0
-413 28 26 0
-413 -28 -26 0
-414 409 0
-414 26 0
-414 25 -28 0
-414 -25 28 0
414 -409 25 28 -26 0
414 -409 -25 -28 -26 0
415 412 -23 0
415 -412 23 0
-415 412 23 0
-415 -412 -23 0
416 26 -24 0
416 -26 24 0
-416 26 24 0
-416 -26 -24 0
-417 412 0
-417 24 0
-417 23 -26 0
-417 -23 26 0
417 -412 23 26 -24 0
417 -412 -23 -26 -24 0
418 415 -21 0
418 -415 21 0
-418 415 21 0
-418 -415 -21 0
419 24 -22 0
419 -24 22 0
-419 24 22 0
-419 -24 -22 0
-420 415 0
-420 22 0
-420 21 -24 0
-420 -21 24 0
420 -415 21 24 -22 0
420 -415 -21 -24 -22 0
421 418 -19 0
421 -418 19 0
-421 418 19 0
-421 -418 -19 0
422 22 -20 0
422 -22 20 0
-422 22 20 0
-422 -22 -20 0
-423 418 0
-423 20 0
-423 19 -22 0
-423 -19 22 0
423 -418 19 22 -20 0
423 -418 -19 -22 -20 0
424 421 -17 0
424 -421 17 0
-424 421 17 0
-424 -421 -17 0
425 20 -18 0
425 -20 18 0
-425 20 18 0
-425 -20 -18 0
-426 421 0
-426 18 0
-426 17 -20 0
-426 -17 20 0
426 -421 17 20 -18 0
426 -421 -17 -20 -18 0
427 424 -15 0
427 -424 15 0
-427 424 15 0
-427 -424 -15 0
428 18 -16 0
428 -18 16 0
-428 18 16 0
-428 -18 -16 0
-429 424 0
-429 16 0
-429 15 -18 0
-429 -15 18 0
429 -424 15 18 -16 0
429 -424 -15 -18 -16 0
430 427 -13 0
430 -427 13 0
-430 427 13 0
-430 -427 -13 0
431 16 -14 0
431 -16 14 0
-431 16 14 0
-431 -16 -14 0
-432 427 0
-432 14 0
-432 13 -16 0
-432 -13 16 0
432 -427 13 16 -14 0
432 -427 -13 -16 -14 0
433 430 -11 0
433 -430 11 0
-433 430 11 0
-433 -430 -11 0
434 14 -12 0
434 -14 12 0
-434 14 12 0
-434 -14 -12 0
-435 430 0
-435 12 0
-435 11 -14 0
-435 -11 14 0
435 -430 11 14 -12 0
435 -430 -11 -14 -12 0
436 433 -9 0
436 -433 9 0
-436 433 9 0
-436 -433 -9 0
437 12 -10 0
437 -12 10 0
-437 12 10 0
-437 -12 -10 0
-438 433 0
-438 10 0
-438 9 -12 0
-438 -9 12 0
438 -433 9 12 -10 0
438 -433 -9 -12 -10 0
439 436 -7 0
439 -436 7 0
-439 436 7 0
-439 -436 -7 0
440 10 -8 0
440 -10 8 0
-440 10 8 0
-440 -10 -8 0
-441 436 0
-441 8 0
-441 7 -10 0
-441 -7 10 0
441 -436 7 10 -8 0
441 -436 -7 -10 -8 0
442 439 -5 0
442 -439 5 0
-442 439 5 0
-442 -439 -5 0
443 8 -6 0
443 -8 6 0
-443 8 6 0
-443 -8 -6 0
-444 439 0
-444 6 0
-444 5 -8 0
-444 -5 8 0
444 -439 5 8 -6 0
444 -439 -5 -8 -6 0
445 442 -3 0
445 -442 3 0
-445 442 3 0
-445 -442 -3 0
446 6 -4 0
446 -6 4 0
-446 6 4 0
-446 -6 -4 0
-447 442 0
-447 4 0
-447 3 -6 0
-447 -3 6 0
447 -442 3 6 -4 0
447 -442 -3 -6 -4 0
448 445 -1 0
448 -445 1 0
-448 445 1 0
-448 -445 -1 0
449 4 -2 0
449 -4 2 0
-449 4 2 0
-449 -4 -2 0
-450 445 0
-450 2 0
-450 1 -4 0
-450 -1 4 0
450 -445 1 4 -2 0
450 -445 -1 -4 -2 0
-448 0
-445 0
-449 0
-442 0
-446 0
-439 0
-443 0
-436 0
-440 0
-433 0
-437 0
-430 0
-434 0
-427 0
-431 0
-424 0
-428 0
-421 0
-425 0
-418 0
-422 0
-415 0
-419 0
-412 0
-416 0
-409 0
-413 0
-406 0
-410 0
-403 0
-407 0
-400 0
-404 0
-397 0
-401 0
-394 0
-398 0
-391 0
-395 0
-388 0
-392 0
-385 0
-389 0
-382 0
-386 0
-379 0
-383 0
-376 0
-380 0
-373 0
-377 0
-370 0
-374 0
-367 0
-371 0
-364 0
-368 0
-361 0
-365 0
-358 0
-362 0
-355 0
-359 0
-352 0
-356 0
-349 0
-353 0
-346 0
-350 0
-343 0
-347 0
-340 0
-344 0
-337 0
-341 0
-334 0
-338 0
-331 0
-335 0
-328 0
-332 0
-325 0
-329 0
-322 0
-326 0
-319 0
-323 0
-316 0
-320 0
-313 0
-317 0
-310 0
-314 0
-307 0
-311 0
-304 0
-308 0
-301 0
-305 0
-298 0
-302 0
-295 0
-299 0
-292 0
-296 0
-289 0
-293 0
-286 0
-290 0
-283 0
-287 0
-280 0
-284 0
-277 0
-281 0
-274 0
-278 0
-271 0
-275 0
-268 0
-272 0
-265 0
-269 0
-262 0
-266 0
-259 0
-263 0
-256 0
-260 0
-253 0
-257 0
-250 0
-254 0
-247 0
-251 0
-244 0
-248 0
-241 0
-245 0
-238 0
-242 0
-235 0
-239 0
-232 0
-236 0
-229 0
-233 0
-226 0
-230 0
-223 0
-227 0
-220 0
-224 0
-217 0
-221 0
-214 0
-218 0
-211 0
-215 0
-208 0
-212 0
-205 0
-209 0
-202 0
-206 0
-199 0
-203 0
-196 0
-200 0
-193 0
-197 0
-190 0
-194 0
-187 0
-191 0
-181 0
-188 0
